70
1 0 7
2 0 16
2 1 20
3 0 20
3 1 13
3 2 5
4 0 3
4 1 17
4 2 1
4 3 4
5 0 16
5 1 19
5 2 4
5 3 12
5 4 1
6 0 16
6 1 13
6 2 16
6 3 4
6 4 3
6 5 10
7 0 7
7 1 17
7 2 18
7 3 5
7 4 18
7 5 11
7 6 15
8 0 15
8 1 14
8 2 9
8 3 13
8 4 1
8 5 16
8 6 18
8 7 11
9 0 19
9 1 11
9 2 7
9 3 11
9 4 14
9 5 2
9 6 2
9 7 15
9 8 7
10 0 6
10 1 9
10 2 7
10 3 18
10 4 7
10 5 11
10 6 16
10 7 13
10 8 19
10 9 11
11 0 3
11 1 11
11 2 12
11 3 10
11 4 15
11 5 20
11 6 18
11 7 17
11 8 17
11 9 8
11 10 17
12 0 1
12 1 20
12 2 8
12 3 5
12 4 2
12 5 9
12 6 20
12 7 18
12 8 7
12 9 6
12 10 7
12 11 10
13 0 18
13 1 13
13 2 4
13 3 8
13 4 2
13 5 4
13 6 13
13 7 19
13 8 5
13 9 19
13 10 4
13 11 8
13 12 15
14 0 6
14 1 5
14 2 8
14 3 15
14 4 1
14 5 18
14 6 16
14 7 2
14 8 20
14 9 13
14 10 14
14 11 17
14 12 7
14 13 14
15 0 8
15 1 18
15 2 15
15 3 2
15 4 7
15 5 8
15 6 15
15 7 18
15 8 17
15 9 4
15 10 13
15 11 8
15 12 2
15 13 17
15 14 9
16 0 11
16 1 12
16 2 11
16 3 4
16 4 13
16 5 12
16 6 7
16 7 18
16 8 11
16 9 20
16 10 8
16 11 2
16 12 5
16 13 3
16 14 14
16 15 19
17 0 9
17 1 16
17 2 3
17 3 10
17 4 4
17 5 9
17 6 20
17 7 3
17 8 9
17 9 20
17 10 2
17 11 13
17 12 9
17 13 19
17 14 5
17 15 2
17 16 7
18 0 16
18 1 12
18 2 20
18 3 14
18 4 1
18 5 18
18 6 3
18 7 3
18 8 1
18 9 1
18 10 12
18 11 3
18 12 9
18 13 16
18 14 16
18 15 19
18 16 11
18 17 1
19 0 18
19 1 11
19 2 7
19 3 14
19 4 1
19 5 16
19 6 4
19 7 1
19 8 3
19 9 10
19 10 13
19 11 11
19 12 16
19 13 3
19 14 16
19 15 5
19 16 15
19 17 19
19 18 8
20 0 18
20 1 10
20 2 12
20 3 15
20 4 10
20 5 13
20 6 1
20 7 1
20 8 18
20 9 4
20 10 11
20 11 7
20 12 11
20 13 8
20 14 11
20 15 15
20 16 3
20 17 19
20 18 15
20 19 3
21 0 16
21 1 3
21 2 10
21 3 19
21 4 11
21 5 8
21 6 15
21 7 12
21 8 20
21 9 18
21 10 3
21 11 7
21 12 15
21 13 14
21 14 9
21 15 1
21 16 20
21 17 20
21 18 13
21 19 16
21 20 10
22 0 20
22 1 8
22 2 20
22 3 15
22 4 3
22 5 14
22 6 7
22 7 2
22 8 17
22 9 8
22 10 11
22 11 1
22 12 17
22 13 9
22 14 18
22 15 5
22 16 20
22 17 14
22 18 5
22 19 15
22 20 4
22 21 16
23 0 10
23 1 20
23 2 2
23 3 5
23 4 18
23 5 16
23 6 19
23 7 9
23 8 2
23 9 11
23 10 12
23 11 2
23 12 5
23 13 11
23 14 5
23 15 17
23 16 13
23 17 12
23 18 19
23 19 13
23 20 2
23 21 16
23 22 9
24 0 11
24 1 1
24 2 1
24 3 14
24 4 10
24 5 14
24 6 10
24 7 13
24 8 8
24 9 6
24 10 18
24 11 19
24 12 20
24 13 4
24 14 16
24 15 5
24 16 15
24 17 10
24 18 12
24 19 20
24 20 1
24 21 15
24 22 1
24 23 7
25 0 13
25 1 18
25 2 11
25 3 13
25 4 7
25 5 9
25 6 18
25 7 20
25 8 11
25 9 20
25 10 5
25 11 7
25 12 3
25 13 17
25 14 10
25 15 7
25 16 3
25 17 17
25 18 12
25 19 2
25 20 9
25 21 15
25 22 16
25 23 1
25 24 4
26 0 16
26 1 6
26 2 7
26 3 15
26 4 20
26 5 16
26 6 15
26 7 20
26 8 2
26 9 20
26 10 8
26 11 1
26 12 17
26 13 5
26 14 7
26 15 9
26 16 15
26 17 11
26 18 16
26 19 12
26 20 6
26 21 15
26 22 11
26 23 20
26 24 18
26 25 14
27 0 16
27 1 13
27 2 20
27 3 17
27 4 15
27 5 7
27 6 18
27 7 18
27 8 3
27 9 6
27 10 6
27 11 7
27 12 6
27 13 8
27 14 16
27 15 14
27 16 13
27 17 3
27 18 9
27 19 4
27 20 4
27 21 12
27 22 3
27 23 6
27 24 9
27 25 19
27 26 6
28 0 8
28 1 8
28 2 8
28 3 16
28 4 14
28 5 18
28 6 4
28 7 1
28 8 18
28 9 18
28 10 17
28 11 16
28 12 11
28 13 1
28 14 15
28 15 8
28 16 10
28 17 3
28 18 9
28 19 20
28 20 8
28 21 15
28 22 8
28 23 19
28 24 5
28 25 16
28 26 7
28 27 2
29 0 1
29 1 8
29 2 2
29 3 16
29 4 3
29 5 16
29 6 8
29 7 6
29 8 3
29 9 11
29 10 17
29 11 13
29 12 19
29 13 4
29 14 18
29 15 7
29 16 15
29 17 17
29 18 13
29 19 15
29 20 20
29 21 16
29 22 2
29 23 5
29 24 6
29 25 17
29 26 4
29 27 10
29 28 3
30 0 18
30 1 3
30 2 9
30 3 15
30 4 5
30 5 19
30 6 3
30 7 14
30 8 11
30 9 5
30 10 10
30 11 8
30 12 2
30 13 12
30 14 19
30 15 12
30 16 5
30 17 16
30 18 3
30 19 13
30 20 4
30 21 3
30 22 2
30 23 12
30 24 20
30 25 5
30 26 4
30 27 8
30 28 16
30 29 4
31 0 13
31 1 8
31 2 14
31 3 8
31 4 14
31 5 10
31 6 1
31 7 19
31 8 2
31 9 1
31 10 1
31 11 14
31 12 15
31 13 17
31 14 1
31 15 11
31 16 9
31 17 8
31 18 12
31 19 4
31 20 13
31 21 13
31 22 15
31 23 17
31 24 14
31 25 13
31 26 12
31 27 18
31 28 17
31 29 19
31 30 1
32 0 12
32 1 9
32 2 14
32 3 18
32 4 8
32 5 3
32 6 10
32 7 4
32 8 10
32 9 13
32 10 20
32 11 7
32 12 11
32 13 12
32 14 5
32 15 1
32 16 17
32 17 19
32 18 7
32 19 12
32 20 10
32 21 19
32 22 13
32 23 16
32 24 14
32 25 19
32 26 11
32 27 9
32 28 17
32 29 5
32 30 19
32 31 11
33 0 11
33 1 20
33 2 7
33 3 5
33 4 1
33 5 11
33 6 19
33 7 5
33 8 4
33 9 3
33 10 12
33 11 18
33 12 18
33 13 13
33 14 5
33 15 13
33 16 9
33 17 10
33 18 3
33 19 7
33 20 9
33 21 11
33 22 11
33 23 10
33 24 18
33 25 8
33 26 20
33 27 8
33 28 19
33 29 10
33 30 5
33 31 15
33 32 11
34 0 12
34 1 13
34 2 15
34 3 3
34 4 6
34 5 1
34 6 1
34 7 8
34 8 19
34 9 8
34 10 11
34 11 12
34 12 9
34 13 15
34 14 7
34 15 5
34 16 2
34 17 13
34 18 9
34 19 5
34 20 12
34 21 10
34 22 10
34 23 17
34 24 14
34 25 10
34 26 2
34 27 9
34 28 13
34 29 9
34 30 6
34 31 16
34 32 11
34 33 4
35 0 9
35 1 17
35 2 2
35 3 13
35 4 8
35 5 13
35 6 9
35 7 19
35 8 9
35 9 14
35 10 9
35 11 7
35 12 6
35 13 14
35 14 18
35 15 9
35 16 3
35 17 5
35 18 10
35 19 11
35 20 1
35 21 19
35 22 11
35 23 17
35 24 18
35 25 10
35 26 10
35 27 15
35 28 5
35 29 16
35 30 3
35 31 10
35 32 9
35 33 19
35 34 1
36 0 10
36 1 1
36 2 20
36 3 19
36 4 5
36 5 1
36 6 17
36 7 18
36 8 15
36 9 10
36 10 3
36 11 17
36 12 20
36 13 1
36 14 4
36 15 17
36 16 17
36 17 14
36 18 16
36 19 7
36 20 5
36 21 17
36 22 11
36 23 15
36 24 16
36 25 13
36 26 12
36 27 12
36 28 4
36 29 13
36 30 10
36 31 9
36 32 15
36 33 14
36 34 6
36 35 12
37 0 20
37 1 14
37 2 13
37 3 16
37 4 20
37 5 8
37 6 4
37 7 13
37 8 4
37 9 1
37 10 14
37 11 11
37 12 3
37 13 7
37 14 11
37 15 8
37 16 3
37 17 13
37 18 15
37 19 11
37 20 17
37 21 14
37 22 4
37 23 16
37 24 11
37 25 15
37 26 20
37 27 12
37 28 7
37 29 15
37 30 20
37 31 6
37 32 6
37 33 20
37 34 2
37 35 12
37 36 3
38 0 1
38 1 2
38 2 19
38 3 16
38 4 8
38 5 10
38 6 11
38 7 5
38 8 5
38 9 9
38 10 15
38 11 4
38 12 6
38 13 7
38 14 16
38 15 6
38 16 9
38 17 20
38 18 4
38 19 17
38 20 3
38 21 18
38 22 20
38 23 10
38 24 7
38 25 1
38 26 12
38 27 13
38 28 5
38 29 1
38 30 7
38 31 11
38 32 17
38 33 5
38 34 15
38 35 15
38 36 8
38 37 3
39 0 14
39 1 6
39 2 13
39 3 5
39 4 18
39 5 20
39 6 5
39 7 1
39 8 13
39 9 20
39 10 17
39 11 5
39 12 2
39 13 16
39 14 17
39 15 1
39 16 20
39 17 18
39 18 3
39 19 13
39 20 12
39 21 14
39 22 15
39 23 9
39 24 11
39 25 4
39 26 11
39 27 12
39 28 15
39 29 13
39 30 10
39 31 4
39 32 16
39 33 3
39 34 17
39 35 10
39 36 19
39 37 7
39 38 6
40 0 10
40 1 17
40 2 14
40 3 15
40 4 9
40 5 20
40 6 18
40 7 6
40 8 1
40 9 15
40 10 6
40 11 8
40 12 13
40 13 16
40 14 11
40 15 9
40 16 20
40 17 20
40 18 4
40 19 3
40 20 19
40 21 20
40 22 20
40 23 19
40 24 12
40 25 10
40 26 20
40 27 4
40 28 20
40 29 7
40 30 12
40 31 5
40 32 14
40 33 5
40 34 10
40 35 8
40 36 10
40 37 20
40 38 20
40 39 10
41 0 13
41 1 6
41 2 17
41 3 13
41 4 15
41 5 2
41 6 1
41 7 17
41 8 5
41 9 13
41 10 4
41 11 14
41 12 9
41 13 18
41 14 19
41 15 20
41 16 4
41 17 1
41 18 13
41 19 15
41 20 5
41 21 19
41 22 7
41 23 4
41 24 5
41 25 18
41 26 4
41 27 18
41 28 12
41 29 6
41 30 9
41 31 13
41 32 3
41 33 5
41 34 10
41 35 16
41 36 20
41 37 14
41 38 6
41 39 5
41 40 7
42 0 13
42 1 16
42 2 5
42 3 19
42 4 4
42 5 6
42 6 13
42 7 4
42 8 8
42 9 16
42 10 9
42 11 17
42 12 14
42 13 8
42 14 3
42 15 20
42 16 20
42 17 14
42 18 14
42 19 5
42 20 10
42 21 14
42 22 4
42 23 18
42 24 14
42 25 10
42 26 20
42 27 8
42 28 18
42 29 4
42 30 2
42 31 3
42 32 4
42 33 15
42 34 20
42 35 8
42 36 12
42 37 5
42 38 11
42 39 7
42 40 18
42 41 15
43 0 17
43 1 16
43 2 17
43 3 10
43 4 19
43 5 7
43 6 14
43 7 8
43 8 13
43 9 13
43 10 3
43 11 14
43 12 15
43 13 12
43 14 7
43 15 13
43 16 8
43 17 18
43 18 4
43 19 9
43 20 9
43 21 17
43 22 8
43 23 16
43 24 14
43 25 7
43 26 1
43 27 11
43 28 19
43 29 13
43 30 9
43 31 9
43 32 1
43 33 3
43 34 10
43 35 15
43 36 8
43 37 9
43 38 1
43 39 15
43 40 19
43 41 10
43 42 18
44 0 4
44 1 17
44 2 14
44 3 5
44 4 16
44 5 7
44 6 5
44 7 20
44 8 9
44 9 9
44 10 3
44 11 5
44 12 12
44 13 2
44 14 6
44 15 8
44 16 1
44 17 11
44 18 9
44 19 4
44 20 5
44 21 14
44 22 20
44 23 17
44 24 16
44 25 16
44 26 1
44 27 19
44 28 9
44 29 18
44 30 20
44 31 5
44 32 4
44 33 4
44 34 18
44 35 12
44 36 5
44 37 19
44 38 2
44 39 11
44 40 6
44 41 9
44 42 18
44 43 8
45 0 10
45 1 10
45 2 20
45 3 5
45 4 2
45 5 11
45 6 2
45 7 11
45 8 1
45 9 14
45 10 9
45 11 16
45 12 7
45 13 7
45 14 9
45 15 19
45 16 19
45 17 20
45 18 8
45 19 11
45 20 10
45 21 2
45 22 9
45 23 19
45 24 4
45 25 6
45 26 11
45 27 1
45 28 10
45 29 20
45 30 7
45 31 6
45 32 14
45 33 14
45 34 3
45 35 4
45 36 17
45 37 5
45 38 3
45 39 1
45 40 17
45 41 9
45 42 8
45 43 2
45 44 14
46 0 11
46 1 4
46 2 4
46 3 16
46 4 16
46 5 9
46 6 19
46 7 16
46 8 15
46 9 14
46 10 17
46 11 19
46 12 2
46 13 8
46 14 5
46 15 3
46 16 10
46 17 14
46 18 19
46 19 16
46 20 2
46 21 8
46 22 7
46 23 17
46 24 8
46 25 20
46 26 5
46 27 1
46 28 7
46 29 10
46 30 3
46 31 18
46 32 8
46 33 8
46 34 10
46 35 6
46 36 13
46 37 14
46 38 2
46 39 8
46 40 1
46 41 7
46 42 18
46 43 13
46 44 16
46 45 16
47 0 12
47 1 8
47 2 5
47 3 7
47 4 14
47 5 3
47 6 9
47 7 1
47 8 9
47 9 4
47 10 14
47 11 1
47 12 15
47 13 19
47 14 1
47 15 4
47 16 17
47 17 8
47 18 7
47 19 3
47 20 17
47 21 10
47 22 17
47 23 2
47 24 6
47 25 10
47 26 6
47 27 18
47 28 11
47 29 8
47 30 7
47 31 9
47 32 20
47 33 20
47 34 8
47 35 7
47 36 8
47 37 5
47 38 14
47 39 8
47 40 16
47 41 4
47 42 19
47 43 6
47 44 19
47 45 2
47 46 1
48 0 6
48 1 14
48 2 5
48 3 19
48 4 18
48 5 18
48 6 18
48 7 6
48 8 3
48 9 5
48 10 10
48 11 8
48 12 3
48 13 3
48 14 17
48 15 5
48 16 2
48 17 19
48 18 11
48 19 15
48 20 19
48 21 4
48 22 5
48 23 1
48 24 4
48 25 1
48 26 11
48 27 17
48 28 12
48 29 19
48 30 16
48 31 17
48 32 8
48 33 9
48 34 14
48 35 19
48 36 17
48 37 4
48 38 17
48 39 14
48 40 10
48 41 20
48 42 12
48 43 13
48 44 10
48 45 13
48 46 8
48 47 4
49 0 20
49 1 20
49 2 19
49 3 15
49 4 13
49 5 7
49 6 5
49 7 16
49 8 15
49 9 2
49 10 20
49 11 18
49 12 6
49 13 13
49 14 6
49 15 18
49 16 3
49 17 4
49 18 9
49 19 3
49 20 9
49 21 14
49 22 16
49 23 5
49 24 5
49 25 18
49 26 2
49 27 11
49 28 7
49 29 15
49 30 17
49 31 6
49 32 1
49 33 4
49 34 17
49 35 6
49 36 3
49 37 5
49 38 12
49 39 5
49 40 16
49 41 3
49 42 10
49 43 8
49 44 6
49 45 8
49 46 10
49 47 2
49 48 15
50 0 4
50 1 2
50 2 8
50 3 14
50 4 7
50 5 15
50 6 10
50 7 8
50 8 10
50 9 14
50 10 17
50 11 12
50 12 11
50 13 14
50 14 18
50 15 13
50 16 12
50 17 17
50 18 16
50 19 4
50 20 8
50 21 13
50 22 10
50 23 12
50 24 11
50 25 15
50 26 5
50 27 15
50 28 3
50 29 1
50 30 5
50 31 7
50 32 17
50 33 12
50 34 7
50 35 12
50 36 19
50 37 17
50 38 9
50 39 7
50 40 6
50 41 4
50 42 7
50 43 1
50 44 14
50 45 9
50 46 4
50 47 14
50 48 7
50 49 7
51 0 19
51 1 8
51 2 20
51 3 17
51 4 14
51 5 7
51 6 11
51 7 11
51 8 19
51 9 7
51 10 4
51 11 19
51 12 11
51 13 12
51 14 11
51 15 13
51 16 8
51 17 13
51 18 6
51 19 10
51 20 7
51 21 2
51 22 17
51 23 12
51 24 18
51 25 12
51 26 3
51 27 5
51 28 13
51 29 3
51 30 10
51 31 10
51 32 12
51 33 7
51 34 5
51 35 5
51 36 10
51 37 14
51 38 9
51 39 6
51 40 8
51 41 15
51 42 1
51 43 19
51 44 13
51 45 14
51 46 11
51 47 20
51 48 14
51 49 1
51 50 17
52 0 20
52 1 14
52 2 15
52 3 12
52 4 13
52 5 5
52 6 20
52 7 1
52 8 19
52 9 9
52 10 10
52 11 1
52 12 15
52 13 17
52 14 6
52 15 20
52 16 19
52 17 5
52 18 4
52 19 6
52 20 4
52 21 18
52 22 1
52 23 12
52 24 17
52 25 12
52 26 4
52 27 19
52 28 20
52 29 19
52 30 4
52 31 18
52 32 17
52 33 19
52 34 1
52 35 16
52 36 6
52 37 20
52 38 19
52 39 16
52 40 19
52 41 13
52 42 1
52 43 15
52 44 9
52 45 16
52 46 7
52 47 16
52 48 8
52 49 17
52 50 11
52 51 19
53 0 20
53 1 1
53 2 19
53 3 13
53 4 1
53 5 13
53 6 1
53 7 11
53 8 19
53 9 7
53 10 7
53 11 3
53 12 2
53 13 12
53 14 10
53 15 7
53 16 1
53 17 8
53 18 14
53 19 15
53 20 3
53 21 20
53 22 8
53 23 18
53 24 19
53 25 9
53 26 17
53 27 13
53 28 19
53 29 12
53 30 1
53 31 19
53 32 1
53 33 10
53 34 10
53 35 3
53 36 16
53 37 6
53 38 7
53 39 17
53 40 10
53 41 11
53 42 9
53 43 17
53 44 18
53 45 1
53 46 3
53 47 16
53 48 5
53 49 7
53 50 6
53 51 7
53 52 16
54 0 18
54 1 19
54 2 11
54 3 5
54 4 16
54 5 1
54 6 20
54 7 3
54 8 5
54 9 2
54 10 5
54 11 18
54 12 3
54 13 5
54 14 18
54 15 13
54 16 1
54 17 10
54 18 17
54 19 1
54 20 9
54 21 4
54 22 16
54 23 17
54 24 9
54 25 11
54 26 4
54 27 13
54 28 7
54 29 4
54 30 17
54 31 11
54 32 4
54 33 19
54 34 4
54 35 6
54 36 8
54 37 4
54 38 15
54 39 3
54 40 12
54 41 10
54 42 9
54 43 12
54 44 16
54 45 16
54 46 12
54 47 1
54 48 8
54 49 14
54 50 18
54 51 3
54 52 3
54 53 19
55 0 17
55 1 7
55 2 14
55 3 12
55 4 19
55 5 18
55 6 6
55 7 9
55 8 5
55 9 19
55 10 5
55 11 8
55 12 12
55 13 7
55 14 14
55 15 5
55 16 20
55 17 5
55 18 17
55 19 19
55 20 8
55 21 6
55 22 4
55 23 2
55 24 13
55 25 8
55 26 15
55 27 7
55 28 17
55 29 18
55 30 20
55 31 8
55 32 5
55 33 20
55 34 6
55 35 13
55 36 18
55 37 12
55 38 9
55 39 6
55 40 6
55 41 1
55 42 15
55 43 20
55 44 1
55 45 10
55 46 12
55 47 19
55 48 19
55 49 1
55 50 2
55 51 7
55 52 5
55 53 9
55 54 15
56 0 18
56 1 1
56 2 16
56 3 6
56 4 11
56 5 14
56 6 10
56 7 5
56 8 16
56 9 5
56 10 4
56 11 6
56 12 1
56 13 20
56 14 2
56 15 5
56 16 8
56 17 6
56 18 11
56 19 11
56 20 19
56 21 16
56 22 20
56 23 8
56 24 10
56 25 19
56 26 3
56 27 9
56 28 6
56 29 7
56 30 5
56 31 16
56 32 4
56 33 7
56 34 5
56 35 17
56 36 5
56 37 12
56 38 7
56 39 3
56 40 12
56 41 5
56 42 5
56 43 2
56 44 10
56 45 10
56 46 14
56 47 8
56 48 9
56 49 1
56 50 6
56 51 16
56 52 20
56 53 8
56 54 13
56 55 20
57 0 16
57 1 5
57 2 6
57 3 17
57 4 9
57 5 3
57 6 2
57 7 2
57 8 13
57 9 12
57 10 2
57 11 18
57 12 19
57 13 17
57 14 15
57 15 14
57 16 13
57 17 9
57 18 19
57 19 9
57 20 8
57 21 10
57 22 1
57 23 12
57 24 6
57 25 16
57 26 16
57 27 10
57 28 2
57 29 7
57 30 6
57 31 7
57 32 1
57 33 3
57 34 20
57 35 3
57 36 19
57 37 1
57 38 1
57 39 20
57 40 16
57 41 5
57 42 10
57 43 10
57 44 19
57 45 13
57 46 4
57 47 15
57 48 14
57 49 18
57 50 2
57 51 8
57 52 10
57 53 3
57 54 11
57 55 13
57 56 13
58 0 2
58 1 8
58 2 17
58 3 16
58 4 20
58 5 4
58 6 18
58 7 18
58 8 10
58 9 16
58 10 16
58 11 15
58 12 8
58 13 2
58 14 7
58 15 16
58 16 18
58 17 14
58 18 19
58 19 14
58 20 3
58 21 16
58 22 16
58 23 15
58 24 11
58 25 12
58 26 2
58 27 19
58 28 10
58 29 19
58 30 1
58 31 8
58 32 13
58 33 20
58 34 14
58 35 8
58 36 14
58 37 7
58 38 17
58 39 2
58 40 1
58 41 13
58 42 16
58 43 5
58 44 6
58 45 14
58 46 5
58 47 11
58 48 7
58 49 13
58 50 1
58 51 8
58 52 3
58 53 12
58 54 17
58 55 9
58 56 15
58 57 4
59 0 14
59 1 20
59 2 5
59 3 10
59 4 3
59 5 15
59 6 8
59 7 1
59 8 16
59 9 14
59 10 8
59 11 1
59 12 15
59 13 13
59 14 1
59 15 11
59 16 15
59 17 8
59 18 13
59 19 1
59 20 20
59 21 3
59 22 11
59 23 4
59 24 15
59 25 6
59 26 6
59 27 2
59 28 8
59 29 14
59 30 13
59 31 11
59 32 7
59 33 5
59 34 17
59 35 9
59 36 2
59 37 3
59 38 4
59 39 9
59 40 12
59 41 4
59 42 15
59 43 1
59 44 17
59 45 9
59 46 5
59 47 13
59 48 12
59 49 6
59 50 18
59 51 13
59 52 2
59 53 8
59 54 8
59 55 14
59 56 1
59 57 19
59 58 15
60 0 13
60 1 7
60 2 16
60 3 13
60 4 19
60 5 2
60 6 3
60 7 5
60 8 12
60 9 11
60 10 2
60 11 17
60 12 11
60 13 20
60 14 12
60 15 19
60 16 7
60 17 5
60 18 12
60 19 17
60 20 17
60 21 13
60 22 11
60 23 1
60 24 11
60 25 4
60 26 4
60 27 12
60 28 2
60 29 3
60 30 18
60 31 3
60 32 15
60 33 15
60 34 18
60 35 12
60 36 11
60 37 13
60 38 7
60 39 20
60 40 9
60 41 12
60 42 3
60 43 3
60 44 13
60 45 12
60 46 1
60 47 12
60 48 5
60 49 18
60 50 16
60 51 6
60 52 4
60 53 8
60 54 12
60 55 10
60 56 17
60 57 14
60 58 17
60 59 16
61 0 16
61 1 2
61 2 19
61 3 13
61 4 13
61 5 1
61 6 11
61 7 15
61 8 16
61 9 11
61 10 1
61 11 19
61 12 16
61 13 18
61 14 16
61 15 9
61 16 13
61 17 4
61 18 15
61 19 14
61 20 16
61 21 6
61 22 16
61 23 9
61 24 3
61 25 8
61 26 8
61 27 2
61 28 2
61 29 2
61 30 11
61 31 5
61 32 12
61 33 16
61 34 10
61 35 12
61 36 10
61 37 11
61 38 20
61 39 6
61 40 18
61 41 15
61 42 11
61 43 4
61 44 20
61 45 6
61 46 5
61 47 17
61 48 2
61 49 20
61 50 5
61 51 12
61 52 10
61 53 9
61 54 13
61 55 2
61 56 3
61 57 8
61 58 8
61 59 16
61 60 14
62 0 8
62 1 15
62 2 16
62 3 10
62 4 19
62 5 3
62 6 12
62 7 1
62 8 16
62 9 14
62 10 14
62 11 2
62 12 16
62 13 11
62 14 3
62 15 12
62 16 19
62 17 12
62 18 1
62 19 16
62 20 8
62 21 18
62 22 14
62 23 7
62 24 19
62 25 8
62 26 3
62 27 20
62 28 20
62 29 7
62 30 15
62 31 7
62 32 11
62 33 12
62 34 18
62 35 16
62 36 18
62 37 16
62 38 10
62 39 15
62 40 20
62 41 9
62 42 6
62 43 6
62 44 12
62 45 10
62 46 5
62 47 9
62 48 2
62 49 7
62 50 2
62 51 5
62 52 19
62 53 5
62 54 11
62 55 10
62 56 12
62 57 5
62 58 9
62 59 4
62 60 11
62 61 9
63 0 5
63 1 5
63 2 17
63 3 6
63 4 7
63 5 14
63 6 12
63 7 8
63 8 20
63 9 8
63 10 7
63 11 4
63 12 8
63 13 5
63 14 7
63 15 6
63 16 19
63 17 8
63 18 1
63 19 16
63 20 12
63 21 19
63 22 3
63 23 7
63 24 13
63 25 8
63 26 11
63 27 19
63 28 14
63 29 7
63 30 6
63 31 18
63 32 8
63 33 16
63 34 6
63 35 13
63 36 5
63 37 12
63 38 8
63 39 2
63 40 18
63 41 9
63 42 14
63 43 2
63 44 2
63 45 20
63 46 9
63 47 5
63 48 13
63 49 10
63 50 20
63 51 11
63 52 4
63 53 17
63 54 11
63 55 7
63 56 8
63 57 11
63 58 1
63 59 11
63 60 7
63 61 12
63 62 2
64 0 3
64 1 7
64 2 17
64 3 3
64 4 4
64 5 1
64 6 11
64 7 2
64 8 17
64 9 14
64 10 8
64 11 10
64 12 2
64 13 4
64 14 8
64 15 9
64 16 19
64 17 11
64 18 8
64 19 1
64 20 11
64 21 19
64 22 14
64 23 7
64 24 16
64 25 2
64 26 13
64 27 11
64 28 6
64 29 11
64 30 2
64 31 8
64 32 11
64 33 18
64 34 2
64 35 19
64 36 20
64 37 5
64 38 14
64 39 15
64 40 12
64 41 16
64 42 5
64 43 16
64 44 6
64 45 2
64 46 9
64 47 17
64 48 4
64 49 12
64 50 18
64 51 1
64 52 1
64 53 17
64 54 10
64 55 15
64 56 19
64 57 11
64 58 2
64 59 6
64 60 8
64 61 19
64 62 7
64 63 20
65 0 10
65 1 11
65 2 11
65 3 11
65 4 12
65 5 8
65 6 11
65 7 14
65 8 18
65 9 3
65 10 17
65 11 19
65 12 8
65 13 15
65 14 15
65 15 2
65 16 17
65 17 8
65 18 7
65 19 10
65 20 11
65 21 20
65 22 1
65 23 6
65 24 8
65 25 7
65 26 6
65 27 13
65 28 9
65 29 15
65 30 12
65 31 5
65 32 1
65 33 8
65 34 17
65 35 18
65 36 15
65 37 1
65 38 12
65 39 4
65 40 2
65 41 6
65 42 8
65 43 15
65 44 1
65 45 10
65 46 17
65 47 11
65 48 20
65 49 20
65 50 18
65 51 8
65 52 8
65 53 7
65 54 1
65 55 8
65 56 6
65 57 11
65 58 5
65 59 12
65 60 10
65 61 9
65 62 3
65 63 12
65 64 2
66 0 2
66 1 15
66 2 17
66 3 17
66 4 11
66 5 10
66 6 14
66 7 1
66 8 5
66 9 14
66 10 5
66 11 5
66 12 2
66 13 11
66 14 3
66 15 6
66 16 1
66 17 19
66 18 7
66 19 3
66 20 14
66 21 15
66 22 14
66 23 16
66 24 13
66 25 16
66 26 18
66 27 16
66 28 19
66 29 2
66 30 17
66 31 1
66 32 12
66 33 12
66 34 7
66 35 2
66 36 1
66 37 13
66 38 9
66 39 3
66 40 10
66 41 15
66 42 13
66 43 15
66 44 9
66 45 11
66 46 12
66 47 14
66 48 9
66 49 15
66 50 5
66 51 1
66 52 9
66 53 5
66 54 6
66 55 13
66 56 8
66 57 2
66 58 16
66 59 2
66 60 5
66 61 7
66 62 16
66 63 2
66 64 6
66 65 10
67 0 2
67 1 20
67 2 8
67 3 10
67 4 13
67 5 2
67 6 12
67 7 1
67 8 2
67 9 13
67 10 13
67 11 15
67 12 2
67 13 9
67 14 7
67 15 12
67 16 7
67 17 8
67 18 16
67 19 19
67 20 11
67 21 4
67 22 17
67 23 1
67 24 6
67 25 1
67 26 10
67 27 6
67 28 5
67 29 10
67 30 13
67 31 19
67 32 9
67 33 18
67 34 18
67 35 1
67 36 2
67 37 1
67 38 11
67 39 18
67 40 18
67 41 10
67 42 17
67 43 11
67 44 7
67 45 16
67 46 2
67 47 4
67 48 20
67 49 17
67 50 7
67 51 20
67 52 1
67 53 6
67 54 5
67 55 13
67 56 11
67 57 10
67 58 16
67 59 1
67 60 20
67 61 6
67 62 6
67 63 4
67 64 11
67 65 5
67 66 11
68 0 1
68 1 5
68 2 3
68 3 6
68 4 1
68 5 1
68 6 18
68 7 4
68 8 8
68 9 7
68 10 5
68 11 2
68 12 7
68 13 13
68 14 20
68 15 5
68 16 11
68 17 8
68 18 4
68 19 16
68 20 7
68 21 4
68 22 2
68 23 4
68 24 19
68 25 12
68 26 7
68 27 20
68 28 12
68 29 20
68 30 2
68 31 10
68 32 15
68 33 2
68 34 17
68 35 16
68 36 19
68 37 9
68 38 16
68 39 12
68 40 4
68 41 8
68 42 20
68 43 17
68 44 2
68 45 18
68 46 13
68 47 16
68 48 7
68 49 5
68 50 8
68 51 14
68 52 14
68 53 2
68 54 11
68 55 12
68 56 20
68 57 5
68 58 1
68 59 5
68 60 19
68 61 19
68 62 8
68 63 8
68 64 18
68 65 5
68 66 8
68 67 18
69 0 3
69 1 13
69 2 2
69 3 17
69 4 10
69 5 20
69 6 9
69 7 11
69 8 4
69 9 2
69 10 6
69 11 16
69 12 18
69 13 3
69 14 17
69 15 19
69 16 7
69 17 5
69 18 3
69 19 12
69 20 1
69 21 18
69 22 12
69 23 12
69 24 1
69 25 17
69 26 10
69 27 19
69 28 10
69 29 7
69 30 4
69 31 8
69 32 14
69 33 14
69 34 15
69 35 7
69 36 6
69 37 13
69 38 9
69 39 7
69 40 11
69 41 11
69 42 10
69 43 20
69 44 4
69 45 7
69 46 5
69 47 10
69 48 19
69 49 11
69 50 2
69 51 8
69 52 12
69 53 19
69 54 8
69 55 3
69 56 2
69 57 7
69 58 11
69 59 1
69 60 1
69 61 12
69 62 6
69 63 14
69 64 14
69 65 6
69 66 9
69 67 2
69 68 19
